benchmarks_CP/INST_49x49/50/inst49x49_50_97.dzn
S=7;
start=[|
45,	14,	-1,	33,	-1,	-1,	-1,	27,	-1,	-1,	28,	6,	15,	32,	-1,	36,	-1,	-1,	-1,	4,	7,	25,	-1,	-1,	38,	39,	17,	30,	22,	-1,	-1,	-1,	-1,	3,	37,	-1,	11,	12,	24,	43,	44,	-1,	23,	-1,	48,	-1,	42,	9,	19|
-1,	-1,	15,	-1,	38,	-1,	42,	-1,	-1,	-1,	30,	5,	-1,	43,	-1,	3,	37,	-1,	-1,	-1,	-1,	-1,	-1,	13,	-1,	-1,	-1,	48,	7,	27,	24,	26,	-1,	-1,	-1,	-1,	31,	39,	2,	22,	36,	9,	-1,	-1,	1,	-1,	-1,	-1,	33|
25,	29,	-1,	11,	44,	-1,	43,	2,	-1,	40,	1,	22,	9,	-1,	45,	15,	14,	-1,	-1,	-1,	-1,	7,	-1,	4,	-1,	-1,	-1,	-1,	39,	-1,	-1,	32,	16,	-1,	-1,	49,	18,	19,	-1,	13,	20,	-1,	6,	-1,	5,	-1,	-1,	37,	41|
26,	-1,	37,	-1,	4,	10,	-1,	-1,	46,	-1,	48,	44,	12,	-1,	35,	2,	9,	19,	-1,	-1,	32,	-1,	-1,	-1,	-1,	36,	-1,	-1,	-1,	-1,	-1,	47,	41,	43,	6,	-1,	-1,	42,	-1,	21,	30,	-1,	-1,	-1,	8,	27,	22,	-1,	-1|
21,	-1,	31,	-1,	9,	-1,	-1,	-1,	42,	-1,	26,	41,	13,	7,	-1,	27,	-1,	-1,	-1,	11,	8,	-1,	-1,	-1,	-1,	-1,	3,	24,	44,	19,	-1,	-1,	1,	-1,	-1,	-1,	-1,	17,	-1,	-1,	10,	-1,	20,	-1,	39,	43,	-1,	-1,	25|
27,	-1,	36,	-1,	-1,	-1,	-1,	8,	-1,	3,	25,	31,	-1,	39,	29,	22,	-1,	43,	-1,	47,	-1,	-1,	-1,	-1,	-1,	9,	-1,	-1,	48,	38,	-1,	35,	45,	-1,	5,	-1,	1,	-1,	16,	-1,	-1,	40,	49,	-1,	14,	-1,	10,	-1,	21|
7,	24,	12,	-1,	32,	3,	20,	-1,	36,	21,	-1,	4,	-1,	-1,	33,	10,	-1,	25,	1,	49,	-1,	-1,	37,	19,	2,	29,	-1,	-1,	46,	-1,	9,	-1,	-1,	-1,	34,	-1,	-1,	28,	8,	-1,	45,	-1,	44,	18,	-1,	38,	26,	-1,	-1|
-1,	39,	34,	-1,	-1,	-1,	8,	41,	-1,	-1,	45,	-1,	-1,	25,	-1,	-1,	-1,	15,	-1,	-1,	-1,	-1,	13,	-1,	48,	28,	-1,	32,	-1,	-1,	-1,	22,	31,	23,	47,	-1,	-1,	-1,	38,	42,	17,	-1,	-1,	11,	-1,	-1,	35,	21,	20|
-1,	47,	-1,	-1,	-1,	42,	-1,	-1,	31,	35,	-1,	29,	-1,	-1,	36,	20,	16,	30,	41,	25,	-1,	-1,	-1,	-1,	10,	-1,	26,	-1,	28,	39,	-1,	-1,	-1,	-1,	-1,	-1,	8,	49,	-1,	5,	-1,	43,	9,	17,	-1,	-1,	48,	-1,	-1|
32,	40,	20,	-1,	16,	15,	-1,	5,	4,	9,	36,	-1,	44,	-1,	-1,	29,	3,	7,	-1,	21,	-1,	47,	-1,	-1,	-1,	24,	18,	-1,	35,	49,	34,	-1,	-1,	-1,	14,	-1,	-1,	41,	37,	1,	-1,	12,	-1,	45,	28,	33,	6,	2,	-1|
33,	6,	38,	-1,	11,	7,	37,	-1,	-1,	-1,	3,	21,	49,	-1,	-1,	35,	43,	-1,	13,	-1,	47,	-1,	-1,	-1,	-1,	-1,	42,	-1,	-1,	16,	-1,	5,	9,	-1,	45,	28,	-1,	22,	23,	30,	4,	-1,	36,	44,	46,	1,	31,	-1,	-1|
-1,	-1,	-1,	14,	31,	44,	-1,	1,	-1,	-1,	-1,	-1,	-1,	28,	27,	37,	24,	46,	39,	-1,	-1,	49,	33,	20,	-1,	4,	9,	-1,	12,	-1,	25,	-1,	3,	11,	-1,	21,	48,	6,	-1,	-1,	-1,	-1,	47,	-1,	-1,	-1,	18,	16,	-1|
24,	48,	18,	-1,	17,	-1,	-1,	-1,	-1,	42,	47,	34,	22,	-1,	26,	-1,	45,	9,	10,	28,	38,	-1,	-1,	1,	15,	21,	-1,	-1,	-1,	6,	4,	30,	-1,	33,	-1,	-1,	16,	-1,	-1,	14,	-1,	-1,	43,	-1,	19,	-1,	-1,	-1,	-1|
-1,	26,	-1,	1,	-1,	-1,	13,	20,	-1,	38,	19,	16,	-1,	-1,	12,	6,	-1,	-1,	-1,	31,	48,	44,	29,	2,	-1,	-1,	34,	45,	-1,	15,	-1,	36,	17,	8,	-1,	-1,	25,	47,	18,	-1,	-1,	3,	-1,	-1,	-1,	-1,	41,	49,	-1|
-1,	13,	9,	34,	-1,	23,	40,	16,	-1,	5,	-1,	-1,	31,	-1,	-1,	38,	27,	44,	-1,	-1,	-1,	-1,	-1,	-1,	49,	43,	29,	8,	-1,	-1,	-1,	24,	11,	-1,	-1,	-1,	-1,	2,	-1,	-1,	-1,	7,	35,	-1,	-1,	30,	37,	28,	46|
-1,	44,	-1,	-1,	2,	-1,	19,	30,	33,	-1,	-1,	-1,	36,	-1,	-1,	-1,	40,	-1,	-1,	14,	3,	13,	20,	18,	12,	35,	-1,	23,	26,	47,	-1,	43,	37,	-1,	-1,	8,	-1,	-1,	39,	-1,	29,	-1,	1,	-1,	-1,	11,	-1,	24,	45|
41,	-1,	-1,	-1,	33,	-1,	-1,	19,	29,	-1,	46,	-1,	-1,	-1,	-1,	34,	-1,	-1,	11,	6,	-1,	-1,	31,	-1,	39,	-1,	-1,	-1,	-1,	-1,	-1,	-1,	13,	42,	35,	1,	23,	-1,	30,	-1,	15,	22,	-1,	-1,	40,	-1,	44,	43,	-1|
6,	30,	-1,	49,	1,	-1,	32,	-1,	40,	41,	-1,	-1,	-1,	-1,	-1,	17,	29,	22,	15,	13,	45,	-1,	-1,	28,	-1,	48,	-1,	-1,	-1,	-1,	-1,	-1,	46,	-1,	39,	3,	-1,	-1,	12,	24,	18,	-1,	-1,	33,	21,	7,	8,	-1,	10|
18,	-1,	-1,	-1,	8,	43,	-1,	-1,	-1,	32,	23,	-1,	17,	-1,	-1,	1,	-1,	35,	-1,	33,	39,	-1,	-1,	-1,	7,	42,	47,	22,	-1,	-1,	45,	-1,	-1,	10,	-1,	-1,	-1,	-1,	11,	-1,	-1,	-1,	-1,	-1,	-1,	-1,	27,	6,	-1|
-1,	-1,	48,	38,	37,	-1,	26,	44,	15,	7,	13,	-1,	35,	10,	-1,	31,	-1,	20,	4,	-1,	-1,	11,	-1,	-1,	41,	-1,	45,	-1,	-1,	21,	30,	-1,	-1,	-1,	-1,	-1,	-1,	14,	-1,	6,	-1,	28,	39,	47,	-1,	-1,	-1,	23,	-1|
-1,	-1,	-1,	-1,	-1,	11,	-1,	-1,	-1,	-1,	42,	-1,	-1,	37,	30,	-1,	2,	-1,	8,	-1,	-1,	10,	32,	-1,	44,	1,	40,	-1,	23,	4,	-1,	-1,	34,	-1,	17,	33,	-1,	-1,	45,	-1,	43,	19,	22,	38,	12,	-1,	-1,	-1,	16|
-1,	11,	-1,	-1,	-1,	13,	-1,	-1,	-1,	4,	-1,	-1,	-1,	-1,	39,	-1,	-1,	8,	44,	42,	-1,	15,	-1,	34,	-1,	25,	12,	-1,	5,	20,	16,	40,	-1,	-1,	33,	-1,	-1,	-1,	21,	-1,	-1,	14,	-1,	48,	45,	31,	-1,	-1,	-1|
-1,	32,	-1,	-1,	-1,	-1,	35,	-1,	3,	-1,	34,	-1,	20,	-1,	-1,	-1,	13,	-1,	-1,	41,	-1,	19,	-1,	8,	-1,	22,	-1,	-1,	-1,	46,	-1,	48,	29,	-1,	-1,	38,	47,	30,	28,	-1,	49,	45,	10,	37,	-1,	-1,	16,	25,	-1|
36,	-1,	44,	-1,	40,	33,	-1,	10,	-1,	46,	18,	-1,	5,	-1,	-1,	-1,	-1,	1,	-1,	-1,	17,	-1,	9,	-1,	-1,	23,	6,	29,	-1,	-1,	35,	3,	19,	-1,	2,	41,	27,	-1,	48,	39,	-1,	26,	-1,	42,	-1,	21,	38,	-1,	4|
39,	-1,	-1,	20,	41,	-1,	4,	-1,	-1,	-1,	-1,	9,	23,	-1,	11,	-1,	-1,	16,	-1,	-1,	6,	-1,	46,	-1,	-1,	30,	-1,	-1,	-1,	-1,	-1,	37,	21,	34,	36,	-1,	-1,	15,	32,	-1,	-1,	-1,	-1,	43,	27,	-1,	14,	18,	-1|
8,	-1,	28,	-1,	-1,	45,	12,	-1,	-1,	27,	-1,	19,	-1,	-1,	-1,	-1,	46,	32,	-1,	-1,	-1,	-1,	-1,	49,	-1,	16,	43,	33,	-1,	-1,	38,	-1,	7,	-1,	-1,	44,	-1,	37,	42,	40,	-1,	-1,	-1,	26,	24,	-1,	47,	-1,	-1|
-1,	10,	-1,	16,	-1,	5,	17,	-1,	-1,	13,	38,	47,	-1,	-1,	-1,	21,	48,	29,	-1,	-1,	25,	-1,	39,	-1,	45,	18,	-1,	41,	8,	-1,	-1,	15,	-1,	-1,	-1,	19,	9,	-1,	4,	31,	1,	-1,	34,	22,	32,	-1,	-1,	12,	44|
-1,	-1,	-1,	-1,	27,	-1,	-1,	39,	30,	43,	35,	37,	-1,	49,	19,	-1,	31,	-1,	-1,	3,	-1,	28,	-1,	-1,	-1,	-1,	4,	-1,	10,	-1,	-1,	-1,	26,	-1,	13,	12,	22,	29,	34,	16,	2,	25,	33,	1,	7,	8,	-1,	20,	-1|
-1,	28,	43,	47,	-1,	-1,	44,	-1,	35,	-1,	9,	11,	-1,	-1,	17,	-1,	26,	-1,	-1,	-1,	49,	46,	24,	-1,	36,	-1,	-1,	5,	21,	37,	12,	1,	22,	-1,	31,	15,	-1,	16,	-1,	2,	-1,	32,	-1,	29,	-1,	-1,	4,	-1,	-1|
11,	-1,	27,	35,	21,	26,	-1,	7,	-1,	20,	32,	-1,	10,	-1,	2,	-1,	44,	37,	-1,	40,	-1,	12,	42,	-1,	1,	14,	-1,	-1,	6,	-1,	-1,	-1,	49,	46,	23,	25,	28,	38,	36,	-1,	-1,	48,	3,	-1,	-1,	-1,	-1,	31,	-1|
48,	1,	23,	-1,	-1,	32,	-1,	-1,	-1,	49,	14,	-1,	46,	-1,	41,	-1,	-1,	12,	-1,	-1,	-1,	-1,	-1,	27,	29,	47,	21,	38,	20,	-1,	-1,	-1,	5,	-1,	24,	31,	-1,	3,	-1,	8,	37,	-1,	25,	-1,	-1,	-1,	34,	-1,	-1|
-1,	31,	40,	-1,	29,	39,	-1,	-1,	-1,	-1,	-1,	28,	-1,	1,	-1,	-1,	25,	34,	-1,	5,	16,	-1,	30,	-1,	-1,	-1,	-1,	19,	-1,	11,	-1,	7,	-1,	18,	-1,	-1,	4,	35,	49,	-1,	41,	24,	-1,	21,	-1,	32,	-1,	-1,	-1|
-1,	-1,	41,	-1,	-1,	6,	5,	3,	-1,	-1,	24,	-1,	47,	-1,	-1,	-1,	23,	-1,	-1,	-1,	-1,	17,	4,	-1,	-1,	-1,	37,	16,	-1,	-1,	10,	25,	-1,	39,	-1,	-1,	12,	-1,	7,	18,	-1,	33,	8,	40,	-1,	26,	-1,	-1,	28|
-1,	-1,	25,	19,	-1,	-1,	49,	48,	-1,	-1,	27,	23,	6,	22,	-1,	-1,	-1,	38,	31,	-1,	36,	-1,	-1,	35,	9,	-1,	-1,	34,	41,	13,	42,	33,	-1,	44,	-1,	-1,	-1,	21,	43,	-1,	-1,	1,	-1,	12,	11,	24,	17,	46,	-1|
42,	-1,	7,	-1,	12,	-1,	-1,	-1,	-1,	16,	-1,	-1,	19,	4,	-1,	33,	35,	-1,	-1,	15,	-1,	-1,	-1,	25,	28,	11,	41,	-1,	36,	-1,	47,	-1,	-1,	-1,	-1,	-1,	46,	-1,	6,	17,	26,	5,	-1,	39,	37,	-1,	1,	-1,	-1|
-1,	16,	-1,	44,	-1,	-1,	-1,	-1,	-1,	-1,	29,	46,	-1,	3,	-1,	9,	-1,	5,	19,	-1,	33,	21,	38,	12,	-1,	15,	-1,	4,	-1,	45,	28,	-1,	10,	-1,	30,	-1,	49,	40,	13,	25,	47,	-1,	-1,	-1,	-1,	37,	-1,	-1,	31|
-1,	4,	1,	15,	48,	9,	45,	-1,	-1,	36,	-1,	14,	28,	23,	47,	-1,	-1,	3,	-1,	32,	18,	-1,	41,	-1,	-1,	34,	-1,	49,	-1,	-1,	-1,	11,	-1,	2,	-1,	-1,	-1,	-1,	-1,	12,	-1,	30,	-1,	19,	33,	-1,	24,	10,	-1|
31,	-1,	-1,	-1,	35,	-1,	-1,	11,	47,	-1,	37,	-1,	-1,	33,	44,	13,	-1,	-1,	48,	22,	-1,	-1,	16,	26,	-1,	19,	-1,	-1,	25,	-1,	-1,	8,	12,	-1,	7,	2,	-1,	36,	41,	32,	-1,	4,	29,	14,	38,	34,	-1,	-1,	49|
13,	-1,	-1,	-1,	24,	-1,	14,	-1,	-1,	8,	44,	32,	4,	-1,	49,	11,	34,	40,	-1,	16,	-1,	-1,	2,	47,	25,	10,	-1,	1,	-1,	5,	-1,	46,	-1,	-1,	19,	-1,	-1,	-1,	17,	48,	28,	-1,	26,	15,	-1,	22,	30,	35,	42|
-1,	20,	5,	26,	-1,	17,	-1,	-1,	38,	-1,	-1,	30,	24,	-1,	-1,	39,	-1,	-1,	25,	-1,	31,	-1,	43,	36,	-1,	-1,	-1,	44,	-1,	33,	22,	18,	27,	-1,	41,	-1,	-1,	11,	-1,	-1,	7,	16,	-1,	-1,	3,	4,	-1,	48,	-1|
40,	43,	19,	6,	25,	12,	38,	26,	-1,	34,	-1,	-1,	-1,	-1,	20,	-1,	-1,	-1,	-1,	46,	-1,	42,	-1,	-1,	-1,	-1,	24,	14,	9,	31,	-1,	44,	-1,	-1,	-1,	10,	37,	-1,	-1,	3,	39,	8,	-1,	-1,	16,	-1,	-1,	13,	-1|
-1,	33,	46,	-1,	49,	-1,	21,	9,	41,	39,	-1,	10,	-1,	40,	4,	8,	1,	-1,	12,	37,	35,	-1,	-1,	-1,	-1,	-1,	31,	-1,	-1,	23,	-1,	34,	6,	36,	-1,	18,	-1,	24,	-1,	-1,	-1,	-1,	17,	-1,	-1,	-1,	-1,	47,	11|
-1,	-1,	-1,	-1,	-1,	22,	-1,	-1,	25,	-1,	41,	-1,	-1,	-1,	32,	-1,	-1,	4,	-1,	30,	-1,	29,	10,	-1,	16,	-1,	-1,	-1,	-1,	24,	18,	23,	8,	37,	15,	-1,	20,	-1,	-1,	28,	48,	11,	-1,	-1,	31,	47,	-1,	45,	-1|
-1,	-1,	-1,	-1,	-1,	38,	-1,	-1,	45,	-1,	7,	-1,	-1,	18,	-1,	-1,	-1,	-1,	-1,	-1,	-1,	8,	36,	-1,	35,	20,	-1,	-1,	-1,	-1,	44,	-1,	-1,	-1,	46,	-1,	41,	-1,	-1,	15,	-1,	6,	40,	27,	23,	19,	-1,	1,	48|
-1,	-1,	4,	-1,	-1,	-1,	-1,	17,	9,	-1,	40,	36,	38,	5,	-1,	28,	-1,	-1,	20,	-1,	-1,	-1,	-1,	-1,	-1,	-1,	11,	12,	45,	1,	-1,	21,	30,	7,	27,	47,	-1,	-1,	-1,	34,	8,	-1,	-1,	10,	-1,	-1,	39,	-1,	24|
47,	21,	13,	40,	36,	2,	48,	-1,	-1,	-1,	12,	-1,	-1,	34,	25,	5,	17,	24,	45,	39,	-1,	33,	3,	-1,	46,	-1,	27,	-1,	-1,	-1,	6,	-1,	43,	-1,	-1,	-1,	30,	10,	1,	23,	-1,	38,	16,	32,	44,	20,	7,	-1,	14|
-1,	-1,	-1,	39,	-1,	-1,	24,	-1,	-1,	6,	-1,	35,	-1,	13,	1,	7,	-1,	-1,	-1,	-1,	27,	-1,	-1,	-1,	4,	44,	-1,	-1,	-1,	-1,	5,	-1,	42,	47,	12,	16,	-1,	-1,	46,	37,	25,	2,	-1,	-1,	-1,	15,	-1,	22,	-1|
44,	12,	10,	-1,	46,	1,	29,	-1,	28,	31,	4,	27,	-1,	24,	-1,	-1,	8,	42,	37,	-1,	2,	-1,	15,	48,	34,	45,	-1,	-1,	-1,	9,	39,	49,	40,	-1,	-1,	32,	17,	18,	-1,	-1,	-1,	36,	21,	-1,	-1,	5,	-1,	26,	-1|
35,	25,	8,	45,	20,	-1,	11,	-1,	22,	-1,	33,	-1,	-1,	16,	-1,	40,	47,	18,	43,	-1,	-1,	-1,	49,	37,	6,	-1,	39,	-1,	-1,	-1,	-1,	-1,	-1,	-1,	38,	-1,	-1,	-1,	-1,	-1,	-1,	-1,	-1,	-1,	-1,	28,	-1,	-1,	-1|];
