sudoku-ls/benchmarks_LEQ/INST_49x49/50/inst49x49_50_97.txt
7
1
45	14	49	33	-1	-1	1	-1	-1	-1	-1	6	15	-1	-1	-1	18	-1	34	-1	7	25	-1	41	38	39	-1	-1	-1	-1	-1	-1	20	-1	37	-1	11	12	-1	43	44	-1	-1	16	48	35	-1	-1	19
-1	-1	-1	8	-1	-1	-1	29	20	23	30	5	-1	-1	28	-1	37	41	21	-1	-1	-1	14	13	47	-1	-1	-1	-1	27	24	-1	4	25	10	6	31	-1	2	-1	36	9	11	34	-1	-1	40	-1	-1
25	29	-1	-1	-1	-1	-1	2	-1	-1	-1	-1	-1	38	-1	15	14	17	42	-1	-1	7	8	-1	-1	26	-1	27	-1	-1	-1	-1	16	-1	21	49	-1	19	3	-1	20	23	-1	-1	5	36	-1	-1	41
-1	23	-1	28	-1	-1	-1	45	46	-1	-1	-1	12	-1	35	2	-1	19	-1	38	-1	1	-1	15	-1	-1	-1	20	-1	-1	-1	47	41	-1	-1	-1	-1	42	25	21	-1	34	-1	-1	8	27	-1	-1	-1
21	34	-1	-1	9	-1	22	49	-1	33	-1	-1	-1	-1	6	27	-1	23	40	-1	-1	-1	-1	16	32	-1	-1	-1	-1	-1	36	-1	-1	28	29	-1	15	-1	35	-1	10	47	20	-1	-1	43	2	-1	25
27	2	36	41	13	-1	-1	-1	-1	3	25	31	37	-1	29	22	20	43	46	-1	30	34	28	23	11	9	44	42	48	-1	-1	-1	45	-1	5	-1	1	32	16	26	33	40	-1	-1	14	-1	-1	-1	-1
-1	-1	12	30	32	3	-1	-1	-1	21	11	4	-1	-1	33	-1	39	-1	1	49	-1	-1	37	-1	-1	29	22	-1	-1	40	-1	-1	-1	31	-1	48	5	-1	8	-1	45	41	44	-1	47	-1	26	17	15
-1	-1	-1	-1	43	-1	-1	-1	6	14	-1	-1	-1	-1	18	-1	4	15	-1	-1	19	-1	13	7	48	-1	16	32	-1	-1	46	22	-1	23	47	-1	2	-1	38	-1	-1	-1	24	-1	-1	3	35	21	20
-1	47	45	21	-1	42	-1	15	-1	-1	2	-1	-1	-1	36	-1	-1	-1	41	-1	-1	6	-1	38	10	-1	26	-1	28	39	-1	27	-1	1	-1	13	8	-1	-1	-1	40	43	-1	17	-1	-1	48	-1	-1
32	40	20	10	16	-1	-1	-1	-1	9	36	-1	44	-1	42	29	-1	7	23	-1	22	47	27	-1	43	24	18	-1	35	49	34	-1	48	-1	14	-1	-1	-1	37	-1	-1	12	-1	-1	-1	33	-1	2	30
-1	-1	38	27	11	7	-1	-1	26	-1	3	21	49	-1	-1	35	-1	-1	-1	8	-1	41	12	14	-1	-1	42	25	40	16	29	-1	-1	-1	45	28	-1	-1	23	30	-1	10	36	-1	46	1	31	-1	-1
5	-1	-1	14	-1	44	2	-1	13	-1	10	43	-1	28	27	-1	-1	-1	39	-1	-1	-1	33	20	8	4	-1	36	12	26	-1	-1	3	11	32	21	-1	-1	19	-1	-1	-1	47	23	29	-1	18	-1	38
24	48	18	29	-1	49	-1	12	-1	-1	47	-1	22	-1	26	-1	-1	-1	10	28	-1	3	-1	1	-1	21	23	-1	-1	-1	4	-1	-1	-1	44	-1	-1	7	-1	-1	31	-1	43	-1	-1	-1	25	27	5
4	26	-1	1	28	-1	-1	20	-1	38	19	16	-1	-1	-1	6	-1	14	33	-1	-1	44	29	2	40	5	-1	45	-1	15	21	36	-1	-1	-1	35	-1	47	-1	-1	24	-1	-1	-1	22	-1	-1	49	37
10	13	9	34	45	23	-1	-1	1	-1	-1	3	-1	20	21	38	-1	44	-1	12	-1	-1	6	33	49	43	29	8	-1	14	-1	24	-1	19	-1	17	-1	-1	-1	-1	32	7	-1	-1	-1	30	37	-1	46
-1	44	16	17	2	4	19	-1	33	-1	-1	-1	-1	-1	10	48	40	-1	7	-1	-1	13	-1	18	12	-1	38	-1	-1	47	32	-1	-1	-1	49	8	34	5	-1	-1	29	-1	-1	31	-1	11	15	-1	-1
41	27	47	5	33	-1	28	19	29	-1	-1	-1	45	26	-1	-1	-1	49	-1	-1	37	-1	31	-1	39	3	14	-1	18	7	8	38	-1	-1	35	-1	-1	25	-1	10	-1	22	4	-1	40	17	44	43	36
-1	-1	42	49	1	35	-1	34	-1	-1	43	38	-1	47	-1	17	29	22	-1	-1	45	4	-1	28	-1	-1	-1	37	2	36	-1	9	-1	-1	-1	-1	-1	31	-1	24	18	27	-1	-1	21	7	8	-1	10
18	-1	21	12	-1	-1	3	-1	-1	-1	-1	24	-1	2	-1	-1	-1	-1	-1	33	39	-1	34	30	7	42	47	-1	31	-1	-1	-1	44	-1	40	-1	38	48	11	49	46	-1	19	-1	-1	-1	-1	6	26
-1	-1	48	-1	-1	-1	26	44	-1	7	-1	8	35	10	-1	31	19	-1	4	24	42	11	17	46	-1	-1	45	2	-1	21	-1	-1	-1	5	-1	40	36	14	-1	6	-1	-1	-1	-1	49	-1	32	23	34
14	36	24	-1	39	-1	-1	18	-1	-1	-1	49	-1	37	-1	-1	2	47	8	9	46	-1	32	5	44	1	-1	15	23	4	41	6	-1	29	-1	-1	-1	26	45	35	43	19	22	38	12	48	20	-1	-1
-1	-1	-1	-1	7	13	46	28	32	4	17	-1	26	-1	-1	-1	-1	8	44	42	-1	15	-1	34	-1	25	-1	-1	-1	-1	16	-1	18	-1	-1	-1	-1	-1	-1	36	-1	14	-1	48	-1	-1	-1	19	9
1	32	-1	18	42	-1	35	40	-1	-1	-1	-1	-1	-1	7	-1	13	-1	27	41	-1	-1	5	8	-1	-1	36	-1	24	-1	-1	-1	29	14	9	38	47	30	-1	11	-1	45	10	37	17	39	-1	25	-1
-1	49	-1	-1	-1	-1	-1	10	-1	-1	18	7	-1	45	37	-1	-1	1	-1	-1	-1	-1	-1	-1	14	23	6	-1	-1	-1	-1	-1	19	12	2	-1	27	8	48	39	13	-1	-1	-1	15	21	-1	11	4
-1	19	29	20	41	24	4	-1	8	12	22	-1	-1	-1	11	47	-1	16	26	45	6	38	-1	-1	13	-1	48	40	-1	-1	-1	-1	-1	-1	-1	-1	-1	15	32	33	5	17	28	43	27	-1	14	-1	-1
8	9	-1	22	30	45	12	-1	11	27	31	19	-1	-1	-1	-1	46	-1	-1	-1	-1	-1	1	49	3	16	43	-1	-1	-1	38	-1	7	-1	-1	-1	-1	-1	-1	40	-1	-1	5	-1	-1	13	47	-1	29
-1	-1	-1	-1	23	5	-1	-1	24	13	-1	-1	-1	36	-1	21	-1	29	-1	35	25	37	39	42	-1	-1	7	-1	-1	-1	-1	-1	28	-1	11	19	9	46	4	31	-1	20	34	22	32	6	-1	12	-1
-1	38	-1	48	27	-1	-1	-1	-1	-1	35	37	41	49	-1	-1	-1	-1	-1	-1	-1	28	44	-1	24	32	-1	17	-1	-1	-1	45	26	-1	13	12	-1	29	34	-1	-1	25	33	-1	-1	8	46	-1	-1
-1	-1	43	-1	10	14	44	33	35	25	-1	-1	-1	30	17	45	-1	39	-1	-1	-1	46	-1	-1	-1	13	8	5	-1	-1	-1	-1	-1	-1	31	-1	-1	16	-1	-1	-1	-1	48	29	20	41	-1	-1	-1
11	8	27	-1	-1	-1	-1	7	17	-1	32	18	10	41	-1	-1	-1	37	-1	40	-1	12	-1	45	1	-1	15	39	6	-1	19	4	49	-1	-1	25	-1	38	36	-1	9	-1	-1	-1	-1	-1	-1	31	-1
-1	-1	-1	4	-1	32	16	-1	39	49	14	13	46	-1	41	-1	-1	12	-1	7	11	-1	18	-1	-1	47	-1	-1	20	-1	17	2	5	-1	24	-1	-1	-1	10	8	37	-1	-1	6	35	9	34	-1	-1
-1	-1	-1	-1	29	-1	-1	42	12	-1	8	-1	-1	-1	9	46	-1	-1	47	5	-1	-1	-1	-1	22	6	33	-1	27	-1	-1	7	38	-1	3	45	4	35	-1	20	41	24	15	21	10	-1	-1	-1	2
-1	46	41	2	-1	-1	5	3	-1	-1	24	45	47	31	13	14	-1	21	22	-1	-1	17	4	-1	20	49	37	-1	-1	-1	-1	-1	-1	-1	48	-1	12	-1	-1	18	-1	-1	-1	-1	36	26	-1	-1	28
-1	3	-1	-1	-1	-1	-1	-1	5	26	-1	-1	-1	22	-1	-1	-1	38	-1	10	36	-1	7	35	-1	-1	-1	34	41	-1	-1	-1	15	-1	16	30	39	-1	-1	-1	14	-1	45	12	11	-1	17	-1	47
42	-1	-1	24	12	34	30	-1	2	16	21	40	-1	-1	-1	33	-1	-1	32	-1	-1	-1	23	-1	-1	-1	-1	-1	-1	43	47	29	-1	9	-1	-1	46	13	6	17	-1	5	18	39	-1	-1	1	44	-1
2	16	11	-1	-1	8	-1	22	-1	1	29	46	-1	-1	-1	-1	-1	-1	-1	26	33	-1	38	12	-1	-1	-1	-1	14	-1	-1	-1	-1	48	-1	-1	49	-1	13	-1	-1	35	-1	41	-1	-1	43	39	-1
-1	4	-1	-1	48	-1	45	-1	-1	-1	-1	-1	-1	23	47	42	-1	-1	-1	32	-1	39	41	6	37	34	-1	-1	-1	-1	40	11	-1	-1	26	-1	43	-1	44	-1	21	-1	-1	-1	33	25	24	-1	-1
31	42	-1	-1	-1	-1	18	11	-1	17	37	-1	-1	-1	-1	-1	15	10	48	22	-1	-1	-1	-1	5	19	-1	-1	-1	3	1	-1	12	-1	7	2	-1	36	-1	32	-1	-1	-1	14	38	34	45	-1	49
13	-1	-1	-1	24	-1	14	6	43	8	-1	32	-1	-1	-1	-1	34	40	29	-1	-1	-1	-1	-1	25	10	-1	1	38	-1	37	-1	-1	-1	-1	9	-1	45	17	48	28	31	-1	-1	18	22	-1	35	42
37	-1	5	26	47	-1	10	13	38	45	49	-1	24	19	-1	-1	21	-1	25	2	-1	40	-1	36	-1	8	-1	-1	-1	-1	22	-1	-1	-1	-1	-1	-1	11	15	46	7	16	12	-1	-1	4	9	-1	-1
40	-1	19	6	25	12	38	-1	7	34	5	-1	-1	35	-1	41	-1	-1	-1	46	28	42	-1	29	-1	-1	-1	14	-1	31	-1	-1	-1	-1	-1	-1	-1	1	22	3	-1	8	27	36	16	23	-1	-1	-1
28	33	46	32	49	29	21	-1	41	39	-1	-1	25	40	-1	8	-1	-1	12	-1	-1	-1	48	22	-1	-1	-1	3	16	-1	13	34	-1	-1	-1	18	-1	-1	-1	19	-1	-1	-1	-1	-1	44	-1	-1	11
-1	5	-1	-1	6	22	7	46	-1	19	41	-1	-1	21	32	44	-1	4	-1	-1	9	29	10	17	16	38	-1	-1	34	24	-1	23	8	37	15	39	-1	27	40	-1	48	-1	-1	13	-1	47	36	-1	3
-1	37	-1	-1	-1	-1	-1	43	45	-1	7	39	-1	-1	22	26	33	11	49	34	21	8	-1	-1	-1	20	-1	47	-1	-1	44	16	-1	13	-1	42	-1	-1	-1	-1	12	6	-1	27	23	-1	29	-1	48
-1	18	-1	43	-1	-1	-1	17	-1	44	-1	36	-1	-1	-1	28	6	-1	20	-1	14	22	19	-1	-1	-1	-1	-1	45	-1	-1	-1	-1	7	27	47	-1	-1	31	34	8	-1	37	-1	-1	-1	-1	41	24
47	21	13	-1	-1	2	48	-1	49	-1	-1	-1	29	34	25	-1	17	-1	-1	39	15	-1	-1	-1	46	41	-1	18	4	22	-1	-1	-1	-1	28	-1	-1	10	1	-1	19	-1	-1	32	44	-1	-1	-1	-1
-1	-1	-1	-1	19	-1	-1	23	48	-1	20	-1	-1	13	1	-1	-1	31	3	36	-1	-1	-1	40	4	-1	-1	-1	33	-1	-1	-1	-1	-1	12	-1	-1	-1	46	-1	25	-1	-1	-1	9	-1	11	-1	-1
-1	-1	10	-1	-1	1	-1	47	28	-1	4	-1	-1	-1	38	-1	-1	42	37	-1	2	-1	15	48	34	45	25	-1	-1	-1	39	-1	40	41	-1	-1	17	-1	14	-1	22	36	-1	35	-1	-1	-1	-1	-1
-1	25	8	-1	-1	27	-1	32	-1	-1	-1	-1	1	-1	-1	40	-1	18	43	-1	-1	-1	-1	-1	-1	31	-1	-1	19	48	14	-1	-1	-1	-1	24	21	-1	-1	44	-1	-1	42	30	4	-1	12	-1	17
49 
25 29 22 12
25 46 39 23
16 21 2 16
10 9 45 3
44 39 42 47
29 19 36 45
33 39 36 43
46 48 48 17
12 27 11 33
1 9 45 44
15 33 8 44
8 1 39 14
34 30 10 43
44 5 26 19
18 19 19 2
48 16 49 14
24 21 2 2
34 5 29 20
39 35 5 30
40 2 43 37
23 25 22 39
16 10 19 28
31 3 14 9
1 39 26 45
35 24 21 16
31 22 35 41
21 13 48 12
19 32 32 12
45 20 19 46
43 20 20 31
36 49 21 7
2 48 44 29
22 35 48 47
29 13 21 33
40 27 46 34
39 4 8 6
3 48 11 7
10 34 13 21
40 16 25 1
27 15 13 46
39 6 44 37
29 48 7 32
31 49 43 28
18 37 4 12
35 2 27 25
39 32 1 42
27 12 11 21
34 8 40 48
23 41 4 29
